Route #1: 7 48 37 59 64 44
Route #2: 54 13 19 16 61 62 47 38
Route #3: 50 63 10 46 6 12 41
Route #4: 23 45 31 35 43 22 51
Route #5: 11 57 56 34 55 17
Route #6: 65 8 33 4 60 15 3 29 21 42
Route #7: 32 40 58 1 52 20 53
Route #8: 27 5 14 39 9 24 49
Route #9: 18 28 2 36 26 25 30
cost 1616.462890625